p min 209 630
n 1 4
n 187 -1
n 191 -1
n 192 -1
n 195 -1
a 1 35 0 1 0
a 1 36 0 1 0
a 1 43 0 1 0
a 1 88 0 1 0
a 2 3 0 4 0
a 2 115 0 4 -100
a 2 207 0 1 0
a 3 4 0 4 0
a 3 116 0 4 -100
a 3 207 0 1 39199
a 4 5 0 4 0
a 4 117 0 4 -100
a 4 207 0 1 100664
a 5 6 0 4 0
a 5 118 0 4 -100
a 5 207 0 1 138312
a 6 7 0 4 0
a 6 119 0 4 -100
a 6 207 0 1 197343
a 7 8 0 4 0
a 7 36 0 4 78966
a 7 36 0 4 177674
a 7 93 0 4 157932
a 7 93 0 4 315865
a 7 120 0 4 -100
a 7 207 0 1 233500
a 8 9 0 4 0
a 8 43 0 4 176611
a 8 45 0 4 78415
a 8 128 0 4 -100
a 9 10 0 4 0
a 9 51 0 4 175906
a 9 53 0 4 78102
a 9 136 0 4 -100
a 9 204 0 1 0
a 10 11 0 4 0
a 10 52 0 4 175818
a 10 54 0 4 78063
a 10 137 0 4 -100
a 10 204 0 1 39199
a 11 12 0 4 0
a 11 53 0 4 175730
a 11 55 0 4 78024
a 11 138 0 4 -100
a 11 204 0 1 100664
a 12 13 0 4 0
a 12 54 0 4 175642
a 12 56 0 4 77985
a 12 139 0 4 -100
a 12 204 0 1 138312
a 13 14 0 4 0
a 13 55 0 4 175554
a 13 57 0 4 77946
a 13 140 0 4 -100
a 13 204 0 1 197343
a 14 15 0 4 0
a 14 56 0 4 175466
a 14 58 0 4 77907
a 14 141 0 4 -100
a 14 204 0 1 233500
a 15 16 0 4 0
a 15 57 0 4 175379
a 15 59 0 4 77868
a 15 142 0 4 -100
a 15 204 0 1 290194
a 16 17 0 4 0
a 16 73 0 4 173981
a 16 158 0 4 -100
a 16 199 0 1 0
a 17 18 0 4 0
a 17 74 0 4 173894
a 17 159 0 4 -100
a 17 199 0 1 39199
a 18 19 0 4 0
a 18 160 0 4 -100
a 18 199 0 1 100664
a 19 20 0 4 0
a 19 161 0 4 -100
a 19 199 0 1 138312
a 20 21 0 4 0
a 20 162 0 4 -100
a 20 199 0 1 197343
a 21 22 0 4 0
a 21 163 0 4 -100
a 21 199 0 1 233500
a 22 23 0 4 0
a 22 164 0 4 -100
a 22 199 0 1 290194
a 23 24 0 4 0
a 23 165 0 4 -100
a 23 199 0 1 324919
a 24 25 0 4 0
a 24 75 0 4 76939
a 24 166 0 4 -100
a 24 199 0 1 379368
a 25 26 0 4 0
a 25 167 0 4 -100
a 25 199 0 1 412718
a 26 27 0 4 0
a 26 75 0 4 173113
a 26 168 0 4 -100
a 27 28 0 4 0
a 27 169 0 4 -100
a 27 205 0 1 0
a 28 29 0 4 0
a 28 170 0 4 -100
a 28 205 0 1 39199
a 29 30 0 4 0
a 29 171 0 4 -100
a 29 202 0 1 0
a 29 205 0 1 100664
a 30 31 0 4 0
a 30 172 0 4 -100
a 30 202 0 1 39199
a 30 205 0 1 138312
a 31 32 0 4 0
a 31 173 0 4 -100
a 31 202 0 1 100664
a 32 33 0 4 0
a 32 174 0 4 -100
a 32 202 0 1 138312
a 33 34 0 4 0
a 33 175 0 4 -100
a 33 202 0 1 197343
a 34 76 0 4 76249
a 34 76 0 4 171562
a 34 100 0 4 151435
a 34 100 0 4 302871
a 34 176 0 4 -100
a 34 202 0 1 233500
a 35 2 0 4 79680
a 35 2 0 4 179281
a 35 36 0 4 0
a 35 88 0 4 79760
a 35 88 0 4 179460
a 35 113 0 4 -100
a 36 37 0 4 0
a 36 94 0 4 78808
a 36 94 0 4 177319
a 36 121 0 4 -100
a 37 8 0 4 78572
a 37 38 0 4 0
a 37 98 0 4 176965
a 37 124 0 4 -100
a 37 201 0 1 0
a 38 39 0 4 0
a 38 99 0 4 176876
a 38 125 0 4 -100
a 38 201 0 1 39199
a 39 8 0 4 176788
a 39 40 0 4 0
a 39 126 0 4 -100
a 39 201 0 1 100664
a 40 41 0 4 0
a 40 127 0 4 -100
a 40 201 0 1 138312
a 41 42 0 4 0
a 41 128 0 4 -100
a 41 201 0 1 197343
a 42 43 0 4 0
a 42 129 0 4 -100
a 42 201 0 1 233500
a 43 44 0 4 0
a 43 130 0 4 -100
a 43 201 0 1 290194
a 43 208 0 1 0
a 44 45 0 4 0
a 44 131 0 4 -100
a 44 201 0 1 324919
a 44 208 0 1 39198
a 45 9 0 4 78258
a 45 46 0 4 0
a 45 132 0 4 -100
a 45 201 0 1 379368
a 45 208 0 1 100663
a 46 10 0 4 78219
a 46 47 0 4 0
a 46 133 0 4 -100
a 46 201 0 1 412718
a 46 208 0 1 138311
a 47 9 0 4 176082
a 47 11 0 4 78180
a 47 48 0 4 0
a 47 134 0 4 -100
a 47 208 0 1 197342
a 48 10 0 4 175994
a 48 12 0 4 78141
a 48 49 0 4 0
a 48 135 0 4 -100
a 48 208 0 1 233499
a 49 11 0 4 175906
a 49 13 0 4 78102
a 49 50 0 4 0
a 49 136 0 4 -100
a 49 208 0 1 290193
a 50 12 0 4 175818
a 50 14 0 4 78063
a 50 51 0 4 0
a 50 137 0 4 -100
a 50 208 0 1 324918
a 51 13 0 4 175730
a 51 15 0 4 78024
a 51 52 0 4 0
a 51 138 0 4 -100
a 51 208 0 1 379367
a 52 14 0 4 175642
a 52 53 0 4 0
a 52 139 0 4 -100
a 52 208 0 1 412717
a 53 15 0 4 175554
a 53 54 0 4 0
a 53 140 0 4 -100
a 53 208 0 1 465010
a 54 55 0 4 0
a 54 141 0 4 -100
a 54 208 0 1 497039
a 55 56 0 4 0
a 55 142 0 4 -100
a 55 208 0 1 547261
a 56 57 0 4 0
a 56 143 0 4 -100
a 56 208 0 1 578022
a 57 58 0 4 0
a 57 144 0 4 -100
a 57 208 0 1 626255
a 58 59 0 4 0
a 58 145 0 4 -100
a 58 208 0 1 655797
a 59 60 0 4 0
a 59 146 0 4 -100
a 59 208 0 1 702120
a 60 61 0 4 0
a 60 147 0 4 -100
a 60 208 0 1 730493
a 61 62 0 4 0
a 61 148 0 4 -100
a 61 208 0 1 774982
a 62 63 0 4 0
a 62 149 0 4 -100
a 62 208 0 1 802231
a 63 64 0 4 0
a 63 150 0 4 -100
a 63 208 0 1 844958
a 64 65 0 4 0
a 64 151 0 4 -100
a 64 208 0 1 871128
a 65 66 0 4 0
a 65 152 0 4 -100
a 65 208 0 1 912163
a 66 67 0 4 0
a 66 153 0 4 -100
a 66 208 0 1 937297
a 67 16 0 4 77402
a 67 68 0 4 0
a 67 154 0 4 -100
a 67 208 0 1 976707
a 67 209 0 1 0
a 68 17 0 4 77363
a 68 69 0 4 0
a 68 155 0 4 -100
a 68 208 0 1 1000846
a 68 209 0 1 39198
a 69 16 0 4 174155
a 69 18 0 4 77325
a 69 70 0 4 0
a 69 156 0 4 -100
a 69 208 0 1 1038695
a 69 209 0 1 100663
a 70 17 0 4 174068
a 70 19 0 4 77286
a 70 71 0 4 0
a 70 157 0 4 -100
a 70 208 0 1 1061878
a 71 18 0 4 173981
a 71 20 0 4 77247
a 71 72 0 4 0
a 71 158 0 4 -100
a 71 208 0 1 1098228
a 72 19 0 4 173894
a 72 21 0 4 77209
a 72 73 0 4 0
a 72 159 0 4 -100
a 72 208 0 1 1120493
a 73 20 0 4 173807
a 73 22 0 4 77170
a 73 74 0 4 0
a 73 160 0 4 -100
a 73 208 0 1 1155404
a 74 21 0 4 173720
a 74 23 0 4 77131
a 74 75 0 4 0
a 74 161 0 4 -100
a 74 208 0 1 1176787
a 75 29 0 4 172940
a 75 31 0 4 76785
a 75 76 0 4 0
a 75 169 0 4 -100
a 76 77 0 4 0
a 76 100 0 4 75717
a 76 100 0 4 170364
a 76 177 0 4 -100
a 77 78 0 4 0
a 77 105 0 4 75114
a 77 105 0 4 169007
a 77 181 0 4 -100
a 78 79 0 4 0
a 78 107 0 4 168838
a 78 109 0 4 74964
a 78 183 0 4 -100
a 78 206 0 1 0
a 79 80 0 4 0
a 79 108 0 4 168753
a 79 110 0 4 74926
a 79 184 0 4 -100
a 79 206 0 1 39199
a 80 81 0 4 0
a 80 109 0 4 168669
a 80 111 0 4 74889
a 80 185 0 4 -100
a 80 206 0 1 100664
a 81 82 0 4 0
a 81 110 0 4 168585
a 81 186 0 4 -100
a 81 206 0 1 138312
a 82 83 0 4 0
a 82 111 0 4 168500
a 82 187 0 4 -100
a 82 206 0 1 197343
a 83 84 0 4 0
a 83 188 0 4 -100
a 83 206 0 1 233500
a 84 85 0 4 0
a 84 189 0 4 -100
a 84 206 0 1 290194
a 85 86 0 4 0
a 85 112 0 4 73774
a 85 112 0 4 165991
a 85 190 0 4 -100
a 85 206 0 1 324919
a 86 87 0 4 0
a 86 193 0 4 -100
a 87 194 0 4 -100
a 88 6 0 4 318085
a 88 89 0 4 0
a 88 114 0 4 -100
a 89 90 0 4 0
a 89 117 0 4 -100
a 89 197 0 1 0
a 90 91 0 4 0
a 90 118 0 4 -100
a 90 197 0 1 39199
a 91 92 0 4 0
a 91 119 0 4 -100
a 91 197 0 1 100664
a 92 36 0 4 78974
a 92 36 0 4 177692
a 92 93 0 4 0
a 92 120 0 4 -100
a 92 197 0 1 138312
a 93 8 0 4 157145
a 93 37 0 4 78737
a 93 94 0 4 0
a 93 121 0 4 -100
a 94 8 0 4 314290
a 94 37 0 4 177159
a 94 39 0 4 78659
a 94 95 0 4 0
a 94 122 0 4 -100
a 94 198 0 1 0
a 95 38 0 4 177071
a 95 40 0 4 78619
a 95 96 0 4 0
a 95 123 0 4 -100
a 95 198 0 1 39199
a 96 39 0 4 176982
a 96 41 0 4 78580
a 96 97 0 4 0
a 96 124 0 4 -100
a 96 198 0 1 100664
a 97 40 0 4 176894
a 97 42 0 4 78541
a 97 98 0 4 0
a 97 125 0 4 -100
a 97 198 0 1 138312
a 98 9 0 4 156517
a 98 41 0 4 176805
a 98 43 0 4 78501
a 98 99 0 4 0
a 98 126 0 4 -100
a 98 198 0 1 197343
a 99 9 0 4 313035
a 99 10 0 4 156439
a 99 42 0 4 176717
a 99 44 0 4 78462
a 99 100 0 4 0
a 99 127 0 4 -100
a 99 198 0 1 233500
a 100 77 0 4 75574
a 100 101 0 4 0
a 100 178 0 4 -100
a 101 77 0 4 170041
a 101 102 0 4 0
a 101 179 0 4 -100
a 101 203 0 1 0
a 102 103 0 4 0
a 102 180 0 4 -100
a 102 203 0 1 39199
a 103 104 0 4 0
a 103 181 0 4 -100
a 103 203 0 1 100664
a 104 78 0 4 75121
a 104 78 0 4 169024
a 104 105 0 4 0
a 104 182 0 4 -100
a 104 203 0 1 138312
a 105 80 0 4 168855
a 105 82 0 4 74971
a 105 106 0 4 0
a 105 183 0 4 -100
a 105 200 0 1 0
a 106 81 0 4 168770
a 106 83 0 4 74934
a 106 107 0 4 0
a 106 184 0 4 -100
a 106 200 0 1 39199
a 107 82 0 4 168686
a 107 84 0 4 74896
a 107 108 0 4 0
a 107 185 0 4 -100
a 107 200 0 1 100664
a 108 83 0 4 168601
a 108 85 0 4 74859
a 108 109 0 4 0
a 108 186 0 4 -100
a 108 200 0 1 138312
a 109 84 0 4 168517
a 109 110 0 4 0
a 109 187 0 4 -100
a 109 200 0 1 197343
a 110 85 0 4 168433
a 110 111 0 4 0
a 110 188 0 4 -100
a 110 200 0 1 233500
a 111 86 0 4 73781
a 111 86 0 4 166008
a 111 112 0 4 0
a 111 189 0 4 -100
a 111 200 0 1 290194
a 112 87 0 4 73633
a 112 87 0 4 165676
a 112 193 0 4 -100
a 113 114 0 4 -100
a 114 113 0 4 59820
a 114 115 0 4 -100
a 115 114 0 4 19920
a 115 116 0 4 -100
a 116 115 0 4 9955
a 116 117 0 4 -100
a 117 116 0 4 9950
a 117 118 0 4 -100
a 118 117 0 4 9945
a 118 119 0 4 -100
a 119 118 0 4 9940
a 119 120 0 4 -100
a 120 119 0 4 9935
a 120 121 0 4 -100
a 121 120 0 4 128320
a 121 122 0 4 -100
a 122 121 0 4 39404
a 122 123 0 4 -100
a 123 122 0 4 9846
a 123 124 0 4 -100
a 124 123 0 4 9841
a 124 125 0 4 -100
a 125 124 0 4 9836
a 125 126 0 4 -100
a 126 125 0 4 9831
a 126 127 0 4 -100
a 127 126 0 4 9826
a 127 128 0 4 -100
a 128 127 0 4 9821
a 128 129 0 4 -100
a 129 128 0 4 9816
a 129 130 0 4 -100
a 130 129 0 4 9811
a 130 131 0 4 -100
a 131 130 0 4 9806
a 131 132 0 4 -100
a 132 131 0 4 9801
a 132 133 0 4 -100
a 133 132 0 4 9797
a 133 134 0 4 -100
a 134 133 0 4 9792
a 134 135 0 4 -100
a 135 134 0 4 9787
a 135 136 0 4 -100
a 136 135 0 4 9782
a 136 137 0 4 -100
a 137 136 0 4 9777
a 137 138 0 4 -100
a 138 137 0 4 9772
a 138 139 0 4 -100
a 139 138 0 4 9767
a 139 140 0 4 -100
a 140 139 0 4 9762
a 140 141 0 4 -100
a 141 140 0 4 9757
a 141 142 0 4 -100
a 142 141 0 4 9753
a 142 143 0 4 -100
a 143 142 0 4 9748
a 143 144 0 4 -100
a 144 143 0 4 9743
a 144 145 0 4 -100
a 145 144 0 4 9738
a 145 146 0 4 -100
a 146 145 0 4 9733
a 146 147 0 4 -100
a 147 146 0 4 9728
a 147 148 0 4 -100
a 148 147 0 4 9723
a 148 149 0 4 -100
a 149 148 0 4 9718
a 149 150 0 4 -100
a 150 149 0 4 9714
a 150 151 0 4 -100
a 151 150 0 4 9709
a 151 152 0 4 -100
a 152 151 0 4 9704
a 152 153 0 4 -100
a 153 152 0 4 9699
a 153 154 0 4 -100
a 154 153 0 4 9694
a 154 155 0 4 -100
a 155 154 0 4 9689
a 155 156 0 4 -100
a 156 155 0 4 9684
a 156 157 0 4 -100
a 157 156 0 4 9680
a 157 158 0 4 -100
a 158 157 0 4 9675
a 158 159 0 4 -100
a 159 158 0 4 9670
a 159 160 0 4 -100
a 160 159 0 4 9665
a 160 161 0 4 -100
a 161 160 0 4 9660
a 161 162 0 4 -100
a 162 161 0 4 9655
a 162 163 0 4 -100
a 163 162 0 4 9651
a 163 164 0 4 -100
a 164 163 0 4 9646
a 164 165 0 4 -100
a 165 164 0 4 9641
a 165 166 0 4 -100
a 166 165 0 4 9636
a 166 167 0 4 -100
a 167 166 0 4 9631
a 167 168 0 4 -100
a 168 167 0 4 9627
a 168 169 0 4 -100
a 169 168 0 4 19234
a 169 170 0 4 -100
a 170 169 0 4 9612
a 170 171 0 4 -100
a 171 170 0 4 9607
a 171 172 0 4 -100
a 172 171 0 4 9602
a 172 173 0 4 -100
a 173 172 0 4 9598
a 173 174 0 4 -100
a 174 173 0 4 9593
a 174 175 0 4 -100
a 175 174 0 4 9588
a 175 176 0 4 -100
a 176 175 0 4 9583
a 176 177 0 4 -100
a 177 176 0 4 104843
a 177 178 0 4 -100
a 178 177 0 4 132506
a 178 179 0 4 -100
a 179 178 0 4 18910
a 179 180 0 4 -100
a 180 179 0 4 9450
a 180 181 0 4 -100
a 181 180 0 4 9445
a 181 182 0 4 -100
a 182 181 0 4 9441
a 182 183 0 4 -100
a 183 182 0 4 103282
a 183 184 0 4 -100
a 184 183 0 4 9384
a 184 185 0 4 -100
a 185 184 0 4 9379
a 185 186 0 4 -100
a 186 185 0 4 9375
a 186 187 0 4 -100
a 187 186 0 4 9370
a 187 188 0 4 -100
a 188 187 0 4 9365
a 188 189 0 4 -100
a 189 188 0 4 9361
a 189 190 0 4 -100
a 190 189 0 4 9356
a 190 191 0 4 -100
a 191 190 0 4 157713
a 191 192 0 4 -100
a 192 191 0 4 92309
a 192 193 0 4 -100
a 193 192 0 4 18443
a 193 194 0 4 -100
a 194 193 0 4 36813
a 194 195 0 4 -100
a 195 194 0 4 127947
a 195 196 0 4 -100
a 196 195 0 4 18259
a 197 93 0 1 -139293
a 198 63 0 1 -256040
a 199 77 0 1 -445106
a 200 112 0 1 -319288
a 201 26 0 1 -413336
a 202 100 0 1 -268964
a 203 111 0 1 -170170
a 204 27 0 1 -312976
a 205 76 0 1 -153889
a 206 87 0 1 -356703
a 207 8 0 1 -258894
a 208 86 0 1 -1197001
a 209 75 0 1 -135733
